Reading model...
...model read.
creating competitive generators file...
...competitive generators recorded.
Loading data...
.. real-time data read.
Compiling instance...
...instance created.
Creating Offer Mitigation (model will solve as dispatch if TRUE)...
NOTE: storage offers will not be mitigated
...storage offer mitigation file created
Converting model to MPEC...
...converted
NOTE: initial MIP solve with only storage competitive to get feasible solution
Solving...

Welcome to IBM(R) ILOG(R) CPLEX(R) Interactive Optimizer 12.10.0.0
  with Simplex, Mixed Integer & Barrier Optimizers
5725-A06 5725-A29 5724-Y48 5724-Y49 5724-Y54 5724-Y55 5655-Y21
Copyright IBM Corp. 1988, 2019.  All Rights Reserved.

Type 'help' for a list of available commands.
Type 'help' followed by a command name for more
information on commands.

CPLEX> Logfile 'cplex.log' closed.
Logfile 'C:\Users\wenmi\Desktop\competitiveMPEC\logs\tmpgcqfow2s.cplex.log' open.
CPLEX> New value for parallel optimization mode: -1
CPLEX> New value for mixed integer optimality gap tolerance: 0.05
CPLEX> New value for deterministic time limit in ticks: 100000
CPLEX> Problem 'C:\Users\wenmi\Desktop\competitiveMPEC\logs\tmpgrn6_t7a.pyomo.lp' read.
Read time = 0.31 sec. (27.44 ticks)
CPLEX> Problem name         : C:\Users\wenmi\Desktop\competitiveMPEC\logs\tmpgrn6_t7a.pyomo.lp
Objective sense      : Maximize
Variables            :  107779  [Nneg: 1,  Box: 44054,  Free: 8928,
                                 Binary: 54796]
Objective nonzeros   :   19154
Linear constraints   :  246995  [Less: 82866,  Greater: 118424,  Equal: 45705]
  Nonzeros           :  582461
  RHS nonzeros       :  136223

Variables            : Min LB: -5000.000        Max UB: 1000000.       
Objective nonzeros   : Min   : 0.02500000       Max   : 2500.000       
Linear constraints   :
  Nonzeros           : Min   : 0.02500000       Max   : 1000000.       
  RHS nonzeros       : Min   : 0.02500000       Max   : 1000000.       
CPLEX> Version identifier: 12.10.0.0 | 2019-11-26 | 843d4de2ae
CPXPARAM_Parallel                                -1
CPXPARAM_DetTimeLimit                            100000
CPXPARAM_MIP_Tolerances_MIPGap                   0.050000000000000003
Tried aggregator 3 times.
MIP Presolve eliminated 173247 rows and 34215 columns.
MIP Presolve added 7711 rows and 0 columns.
MIP Presolve modified 52020 coefficients.
Aggregator did 25989 substitutions.
Reduced MIP has 55470 rows, 47191 columns, and 151566 nonzeros.
Reduced MIP has 18700 binaries, 0 generals, 0 SOSs, and 0 indicators.
Presolve time = 0.34 sec. (341.48 ticks)
Probing fixed 707 vars, tightened 8655 bounds.
Probing time = 0.09 sec. (17.67 ticks)
Tried aggregator 2 times.
Detecting symmetries...
MIP Presolve eliminated 1604 rows and 1427 columns.
MIP Presolve modified 7148 coefficients.
Aggregator did 96 substitutions.
Reduced MIP has 53770 rows, 45668 columns, and 146598 nonzeros.
Reduced MIP has 17991 binaries, 0 generals, 0 SOSs, and 0 indicators.
Presolve time = 0.17 sec. (266.84 ticks)
Probing fixed 0 vars, tightened 131 bounds.
Probing time = 0.19 sec. (19.78 ticks)
Clique table members: 92896.
MIP emphasis: balance optimality and feasibility.
MIP search method: dynamic search.
Parallel mode: opportunistic, using up to 16 threads.
Root relaxation solution time = 1.00 sec. (3011.43 ticks)

        Nodes                                         Cuts/
   Node  Left     Objective  IInf  Best Integer    Best Bound    ItCnt     Gap

      0     0      206.0048   460                    206.0048    12386         
      0     0      206.0048   460                   Cuts: 201    12466         
      0     0      182.9516   460                   Cuts: 101    12544         
      0     0      182.0802   460                    Cuts: 36    12584         
      0     0      180.6924   460                    Cuts: 27    12601         
      0     0      180.2864   460                    Cuts: 19    12622         
      0     0      179.7525   460                    Cuts: 15    12632         
      0     0      179.7525   460                     Cuts: 7    12634         
      0     0      179.3900   460                     Cuts: 7    12638         
      0     0      179.3900   460                    Cuts: 20    12649         
      0    15    -1974.1619    52                    172.5941    12968         
Elapsed time = 9.11 sec. (9968.35 ticks, tree = 0.02 MB, solutions = 0)
     83    42    -3828.5649    43                    143.4000    13357         
    255   128    -1098.2304     7                    143.4000    14281         
    418   138     -938.7402    13                    143.4000    14407         
    553   351    -1943.1607    15                    143.4000    17683         
    678   241    -5531.4786    18                    143.4000    15979         
    818   424    -1213.2596     3                    143.4000    18600         
    935   653    -9503.6168    15                    143.4000    26868         
   1058   637     -984.3060    10                    143.4000    23794         
   1216   743    -2402.7898    26                    143.4000    30797         
   1818  1117     -311.9157    24                    143.4000    43882         
Elapsed time = 24.23 sec. (13091.43 ticks, tree = 20.20 MB, solutions = 0)
*  2320+ 1400                          142.2741      143.4000             0.79%
   2375  1383     -415.1118    18      142.2741      143.4000    53653    0.79%
   2734  1577     -400.3033     7      142.2741      143.4000    58932    0.79%

Cover cuts applied:  14
Implied bound cuts applied:  3
Flow cuts applied:  87
Mixed integer rounding cuts applied:  86
Gomory fractional cuts applied:  38

Root node processing (before b&c):
  Real time             =    7.84 sec. (9870.33 ticks)
Parallel b&c, 16 threads:
  Real time             =   21.61 sec. (5229.72 ticks)
  Sync time (average)   =    0.32 sec.
  Wait time (average)   =    0.00 sec.
                          ------------
Total (root+branch&cut) =   29.45 sec. (15100.04 ticks)

Solution pool: 1 solution saved.

MIP - Integer optimal, tolerance (0.05/1e-06):  Objective =  1.4227411685e+02
Current MIP best bound =  1.4340002869e+02 (gap = 1.12591, 0.79%)
Solution time =   29.45 sec.  Iterations = 67104  Nodes = 2744 (4)
Deterministic time = 15100.35 ticks  (512.69 ticks/sec)

CPLEX> Incumbent solution written to file 'C:\Users\wenmi\Desktop\competitiveMPEC\logs\tmp4yabmolk.cplex.sol'.
CPLEX> NOTE: no warmstart specified for MIP iteration, default behavior is true
NOTE: resolving with all competitive generators using storage-only solution to warmstart
Solving...

Welcome to IBM(R) ILOG(R) CPLEX(R) Interactive Optimizer 12.10.0.0
  with Simplex, Mixed Integer & Barrier Optimizers
5725-A06 5725-A29 5724-Y48 5724-Y49 5724-Y54 5724-Y55 5655-Y21
Copyright IBM Corp. 1988, 2019.  All Rights Reserved.

Type 'help' for a list of available commands.
Type 'help' followed by a command name for more
information on commands.

CPLEX> Logfile 'cplex.log' closed.
Logfile 'C:\Users\wenmi\Desktop\competitiveMPEC\logs\tmp4okiqxou.cplex.log' open.
CPLEX> New value for parallel optimization mode: -1
CPLEX> New value for mixed integer optimality gap tolerance: 0.05
CPLEX> New value for deterministic time limit in ticks: 100000
CPLEX> Problem 'C:\Users\wenmi\Desktop\competitiveMPEC\logs\tmpyy7pkfdn.pyomo.lp' read.
Read time = 0.31 sec. (27.48 ticks)
CPLEX> MIP start file 'C:\Users\wenmi\Desktop\competitiveMPEC\logs\tmprfq6su54.cplex.mst' read.
CPLEX> Problem name         : C:\Users\wenmi\Desktop\competitiveMPEC\logs\tmpyy7pkfdn.pyomo.lp
Objective sense      : Maximize
Variables            :  109219  [Nneg: 1,  Box: 45494,  Free: 8928,
                                 Binary: 54796]
Objective nonzeros   :   20546
Linear constraints   :  246995  [Less: 82866,  Greater: 118424,  Equal: 45705]
  Nonzeros           :  582461
  RHS nonzeros       :  136223

Variables            : Min LB: -5000.000        Max UB: 1000000.       
Objective nonzeros   : Min   : 0.02500000       Max   : 2500.000       
Linear constraints   :
  Nonzeros           : Min   : 0.02500000       Max   : 1000000.       
  RHS nonzeros       : Min   : 0.02500000       Max   : 1000000.       
CPLEX> Version identifier: 12.10.0.0 | 2019-11-26 | 843d4de2ae
CPXPARAM_Parallel                                -1
CPXPARAM_DetTimeLimit                            100000
CPXPARAM_MIP_Tolerances_MIPGap                   0.050000000000000003
1 of 1 MIP starts provided solutions.
MIP start 'm1' defined initial solution with objective 8677.3146.
Tried aggregator 3 times.
MIP Presolve eliminated 173247 rows and 35655 columns.
MIP Presolve added 7711 rows and 0 columns.
MIP Presolve modified 52020 coefficients.
Aggregator did 25989 substitutions.
Reduced MIP has 55470 rows, 47191 columns, and 151566 nonzeros.
Reduced MIP has 18700 binaries, 0 generals, 0 SOSs, and 0 indicators.
Presolve time = 0.34 sec. (342.24 ticks)
Probing fixed 707 vars, tightened 8655 bounds.
Probing time = 0.09 sec. (17.67 ticks)
Tried aggregator 2 times.
Detecting symmetries...
MIP Presolve eliminated 1604 rows and 1427 columns.
MIP Presolve modified 7148 coefficients.
Aggregator did 96 substitutions.
Reduced MIP has 53770 rows, 45668 columns, and 146598 nonzeros.
Reduced MIP has 17991 binaries, 0 generals, 0 SOSs, and 0 indicators.
Presolve time = 0.17 sec. (266.85 ticks)
Probing fixed 0 vars, tightened 126 bounds.
Probing time = 0.17 sec. (17.47 ticks)
Clique table members: 92624.
MIP emphasis: balance optimality and feasibility.
MIP search method: dynamic search.
Parallel mode: opportunistic, using up to 16 threads.
Root relaxation solution time = 1.03 sec. (3028.99 ticks)

        Nodes                                         Cuts/
   Node  Left     Objective  IInf  Best Integer    Best Bound    ItCnt     Gap

*     0+    0                         8677.3146   1.34127e+07              --- 
      0     0     9168.3593   619     8677.3146     9168.3593    13185    5.66%
      0     0     9164.0728   619     8677.3146     Cuts: 608    13438    5.61%
      0     0     9127.5552   619     8677.3146     Cuts: 631    13614    5.19%
      0     0     9116.2529   619     8677.3146     Cuts: 212    13729    5.06%
      0     0     9108.2267   619     8677.3146     Cuts: 143    13805    4.97%

Clique cuts applied:  2
Implied bound cuts applied:  7
Flow cuts applied:  216
Mixed integer rounding cuts applied:  88
Gomory fractional cuts applied:  12

Root node processing (before b&c):
  Real time             =    4.13 sec. (6103.02 ticks)
Parallel b&c, 16 threads:
  Real time             =    0.00 sec. (0.00 ticks)
  Sync time (average)   =    0.00 sec.
  Wait time (average)   =    0.00 sec.
                          ------------
Total (root+branch&cut) =    4.13 sec. (6103.02 ticks)

Solution pool: 1 solution saved.

MIP - Integer optimal, tolerance (0.05/1e-06):  Objective =  8.6773146165e+03
Current MIP best bound =  9.1082266793e+03 (gap = 430.912, 4.97%)
Solution time =    4.13 sec.  Iterations = 13805  Nodes = 0 (1)
Deterministic time = 6103.34 ticks  (1479.60 ticks/sec)

CPLEX> Incumbent solution written to file 'C:\Users\wenmi\Desktop\competitiveMPEC\logs\tmpqhdpb2fh.cplex.sol'.
CPLEX> Exporting results... 
